c   #vars: 114   #clauses: 537   #literals: 1486
c 
p cnf 114 537
53 54 102 103 0
26 27 53 54 0
3 4 75 76 0
17 88 89 -110 0
-3 -4 0
-5 -6 0
-7 -8 0
-9 -10 0
-11 -12 0
-13 -14 0
-15 -16 0
5 6 -52 63 0
-18 -19 0
72 73 110 111 0
55 56 90 91 0
-20 -21 0
-22 -23 0
-24 -25 0
-26 -27 0
-28 -29 0
-30 -31 0
-32 -33 0
-34 -35 0
-36 -37 0
-38 -39 0
-41 -42 0
-43 -44 0
-45 -46 0
5 6 28 29 0
5 6 51 52 0
-48 -49 0
-51 -52 0
-53 -54 0
-55 -56 0
-57 -58 0
-59 -60 0
-61 -62 0
-30 43 44 70 0
-64 -65 0
-66 -67 0
-68 -69 0
74 -99 102 103 0
13 14 50 -82 0
-72 -73 0
45 46 -59 79 0
-75 -76 0
-77 -78 0
86 87 96 -106 0
-80 -81 0
-82 -83 0
-84 -85 0
-7 96 106 107 0
40 -52 -61 63 0
-86 -87 0
-88 -89 0
-90 -91 0
-92 -93 0
-94 -95 0
-72 84 85 112 0
-97 -98 0
2 -34 90 91 0
-100 -101 0
-102 -103 0
-104 -105 0
-106 -107 0
20 21 59 60 0
-108 -109 0
-110 -111 0
1 43 44 -64 0
3 4 11 12 0
-113 -114 0
9 10 72 73 0
59 60 64 65 0
28 29 104 105 0
3 4 80 81 0
28 29 108 109 0
17 -88 110 111 0
82 83 108 109 0
1 -43 64 65 0
90 91 100 101 0
1 -26 64 65 0
40 -63 90 91 0
-1 -27 0
40 -61 90 91 0
-1 -44 0
80 81 106 107 0
-1 -65 0
26 27 -30 71 0
17 -36 88 89 0
-2 -35 0
30 31 92 93 0
17 36 37 -110 0
-2 -91 0
17 36 37 -88 0
-2 -114 0
24 25 104 105 0
-3 -11 0
-4 -12 0
20 21 86 87 0
-3 -57 0
-4 -58 0
68 69 94 95 0
-3 -75 0
-4 -76 0
41 42 77 78 0
-3 -80 0
-4 -81 0
26 27 106 107 0
-3 -113 0
-4 -114 0
13 14 22 23 0
-5 -18 0
-6 -19 0
15 16 36 37 0
-5 -28 0
-6 -29 0
9 10 38 39 0
-5 -32 0
-6 -33 0
-5 -34 0
-6 -35 0
13 14 104 105 0
-5 -51 0
-6 -52 0
-5 -63 0
-11 44 70 0
22 23 26 27 0
-5 -106 0
-6 -107 0
20 21 92 93 0
-7 -61 0
-8 -62 0
-20 99 108 109 0
-7 -77 0
-8 -78 0
61 62 68 69 0
-7 -88 0
-8 -89 0
82 83 102 103 0
-34 84 85 112 0
-8 -96 0
-9 -18 0
-10 -19 0
47 -48 57 58 0
-9 -38 0
-10 -39 0
-9 -61 0
-10 -62 0
61 62 77 78 0
-9 -72 0
-10 -73 0
-11 -43 0
-12 -44 0
-11 -53 0
-12 -54 0
5 6 32 33 0
-12 74 102 103 0
-12 -70 0
30 31 77 78 0
-11 -74 0
-24 45 46 79 0
18 19 100 101 0
-13 -22 0
-14 -23 0
-14 -50 0
18 19 28 29 0
-13 -68 0
-14 -69 0
13 14 50 -53 0
-14 -71 0
9 10 18 19 0
-13 -75 0
-14 -76 0
-26 30 31 71 0
-13 -104 0
-14 -105 0
24 25 94 95 0
-15 -36 0
-16 -37 0
-15 -59 0
-16 -60 0
-15 -66 0
-16 -67 0
84 85 108 109 0
-15 -108 0
-16 -109 0
13 14 68 69 0
-15 -110 0
-16 -111 0
13 14 -26 71 0
5 6 -40 63 0
-17 -37 0
13 14 -30 71 0
-40 51 52 63 0
-17 -89 0
50 53 54 -82 0
-6 51 52 63 0
-17 -111 0
36 37 82 83 0
-18 -28 0
-19 -29 0
22 23 113 114 0
-18 -68 0
-19 -69 0
88 89 110 111 0
-18 -100 0
-19 -101 0
22 23 66 67 0
-18 -106 0
-19 -107 0
-11 30 31 70 0
34 35 38 39 0
30 31 -43 70 0
-20 -24 0
-21 -25 0
26 27 45 46 0
-20 -30 0
-21 -31 0
-20 -45 0
-21 -46 0
53 54 77 78 0
-20 -59 0
-21 -60 0
72 73 -84 112 0
-20 -66 0
-21 -67 0
-20 -86 0
-21 -87 0
43 44 68 69 0
-20 -92 0
-21 -93 0
92 93 102 103 0
2 34 35 -113 0
-21 -99 0
-22 -26 0
-23 -27 0
36 37 97 98 0
-22 -51 0
-23 -52 0
-22 -66 0
-23 -67 0
-22 -113 0
-23 -114 0
-7 86 87 96 0
-25 -79 0
97 98 106 107 0
2 90 91 -113 0
-24 -94 0
-25 -95 0
20 21 66 67 0
-24 -104 0
-25 -105 0
90 91 92 93 0
47 57 58 -88 0
47 -57 88 89 0
30 31 55 56 0
-26 -45 0
-27 -46 0
-13 50 53 54 0
-26 -53 0
-27 -54 0
20 21 45 46 0
50 -53 82 83 0
-27 -71 0
30 31 64 65 0
-26 -92 0
-27 -93 0
-12 -20 74 99 0
-26 -106 0
-27 -107 0
-6 40 63 -90 0
-28 -84 0
-29 -85 0
57 58 104 105 0
-28 -104 0
-29 -105 0
77 78 92 93 0
-28 -108 0
-29 -109 0
-30 -55 0
-31 -56 0
-30 -64 0
-31 -65 0
41 42 92 93 0
11 12 74 -103 0
-31 -70 0
74 99 -103 -108 0
-13 50 82 83 0
-31 -71 0
45 46 57 58 0
-30 -77 0
-31 -78 0
45 46 66 67 0
-30 -92 0
-31 -93 0
51 52 104 105 0
-32 -48 0
-33 -49 0
-32 -72 0
-33 -73 0
-32 -80 0
-33 -81 0
-86 96 106 107 0
-34 -38 0
-35 -39 0
11 12 43 44 0
-34 -84 0
-35 -85 0
-34 72 73 112 0
-35 -112 0
57 58 97 98 0
-24 59 60 79 0
-36 -72 0
-37 -73 0
-36 -82 0
-37 -83 0
86 87 108 109 0
-36 -97 0
-37 -98 0
40 61 62 -90 0
-38 -45 0
-39 -46 0
55 56 97 98 0
-38 -100 0
-39 -101 0
47 48 49 -88 0
-40 -62 0
38 39 45 46 0
12 -43 70 0
68 69 106 107 0
-40 -91 0
-41 -43 0
-42 -44 0
41 42 68 69 0
-41 -68 0
-42 -69 0
-41 -77 0
-42 -78 0
15 16 108 109 0
-41 -92 0
-42 -93 0
48 49 113 114 0
-43 -68 0
-44 -69 0
32 33 72 73 0
11 12 74 -99 0
-44 -70 0
48 49 110 111 0
-43 -80 0
-44 -81 0
-45 -57 0
-46 -58 0
20 21 24 25 0
-45 -66 0
-46 -67 0
7 8 77 78 0
7 8 96 -106 0
-46 -79 0
28 29 84 85 0
-47 -49 0
20 21 99 -108 0
-47 -58 0
-13 26 27 71 0
20 21 -74 99 0
-47 -89 0
1 -26 43 44 0
47 -48 88 89 0
3 4 57 58 0
-48 -72 0
-49 -73 0
-48 -90 0
-49 -91 0
3 4 113 114 0
-48 -110 0
-49 -111 0
-12 74 99 -108 0
-48 -113 0
-49 -114 0
-11 -12 45 46 0
-50 -54 0
55 56 77 78 0
-50 -83 0
-13 30 31 71 0
-51 -63 0
11 12 -30 70 0
47 48 49 -57 0
-51 -80 0
-52 -81 0
32 33 80 81 0
-51 -104 0
-52 -105 0
59 60 100 101 0
-53 -77 0
-54 -78 0
59 60 88 89 0
-53 -97 0
-54 -98 0
5 6 34 35 0
-53 -102 0
-54 -103 0
15 16 59 60 0
-53 -104 0
-54 -105 0
9 10 61 62 0
-55 -75 0
-56 -76 0
7 8 61 62 0
-55 -77 0
-56 -78 0
17 -36 110 111 0
-55 -90 0
-56 -91 0
36 37 72 73 0
-55 -97 0
-56 -98 0
13 14 75 76 0
-57 -97 0
-58 -98 0
55 56 75 76 0
-57 -104 0
-58 -105 0
1 26 27 -43 0
-59 -64 0
-60 -65 0
22 23 51 52 0
7 8 -86 96 0
-60 -79 0
38 39 100 101 0
-59 -88 0
-60 -89 0
15 16 110 111 0
-59 -100 0
-60 -101 0
-61 -68 0
-62 -69 0
15 16 66 67 0
-61 -77 0
-62 -78 0
18 19 106 107 0
-64 -84 0
-65 -85 0
72 73 90 91 0
-68 -92 0
-69 -93 0
-74 99 108 109 0
-68 -94 0
-69 -95 0
48 49 72 73 0
-68 -106 0
-69 -107 0
53 54 97 98 0
-72 -90 0
-73 -91 0
-6 40 -61 63 0
-72 -100 0
-73 -101 0
40 -52 63 -90 0
-72 -110 0
-73 -111 0
32 33 48 49 0
59 60 -84 -85 0
-73 -112 0
11 12 53 54 0
2 34 35 -90 0
24 25 -59 79 0
40 61 62 -63 0
-74 -102 0
24 25 -45 79 0
43 44 80 81 0
-75 -97 0
-76 -98 0
80 81 86 87 0
-75 -104 0
-76 -105 0
51 52 80 81 0
-75 -108 0
-76 -109 0
48 49 90 91 0
-77 -92 0
-78 -93 0
-80 -86 0
-81 -87 0
34 35 84 85 0
-80 -106 0
-81 -107 0
75 76 104 105 0
-82 -102 0
-83 -103 0
72 73 100 101 0
-82 -108 0
-83 -109 0
102 103 113 114 0
-84 -108 0
-85 -109 0
5 6 106 107 0
-85 -112 0
75 76 108 109 0
2 -34 113 114 0
68 69 92 93 0
34 35 -84 112 0
-87 -96 0
7 8 88 89 0
-86 -108 0
-87 -109 0
94 95 97 98 0
-88 -110 0
-89 -111 0
75 76 97 98 0
-90 -92 0
-91 -93 0
26 27 92 93 0
-90 -100 0
-91 -101 0
5 6 18 19 0
-92 -102 0
-93 -103 0
20 21 30 31 0
-94 -97 0
-95 -98 0
18 19 68 69 0
-94 -106 0
-95 -107 0
94 95 106 107 0
34 35 -72 112 0
-96 -107 0
53 54 104 105 0
-97 -106 0
-98 -107 0
64 65 84 85 0
2 -90 113 114 0
-99 -109 0
41 42 43 44 0
-20 74 99 -103 0
-45 59 60 79 0
1 26 27 -64 0
-102 -113 0
-103 -114 0
